001 001 011 015 033 025 038 050 004 000 015 005 000 000 004 022 017 030 068 056 042 023 030 017 008 006 006 006 003 010 010
000 000 002 005 010 019 064 035 003 000 020 008 001 000 001 006 022 055 094 109 058 038 069 080 022 016 022 009 003 017 020
001 000 001 005 005 007 021 012 001 000 -99 008 008 000 000 002 015 040 100 111 069 062 096 061 026 034 022 009 002 008 032
009 006 003 003 004 007 010 007 001 000 -99 -99 000 000 000 000 011 040 061 094 098 078 091 073 048 044 022 012 002 009 035
007 004 007 001 001 002 009 003 000 000 -99 -99 000 000 000 000 001 010 044 080 066 064 075 047 046 033 014 006 003 002 026
001 001 001 000 000 000 003 001 000 000 000 -99 000 000 -99 000 000 002 023 072 075 066 073 044 047 042 007 002 004 003 010
000 000 000 000 000 000 000 001 000 000 000 -99 -99 000 -99 000 000 000 006 024 058 069 072 048 025 052 010 004 003 006 003
000 000 000 000 000 000 000 000 000 000 000 -99 -99 000 -99 000 000 000 001 003 028 027 054 055 011 033 010 005 004 010 003
000 000 000 000 000 000 000 000 000 000 000 000 -99 -99 -99 -99 000 000 000 000 004 004 017 030 008 017 008 005 006 012 005
000 000 000 000 000 000 -99 000 000 000 000 000 -99 -99 -99 -99 -99 000 000 000 000 002 004 009 016 008 006 003 003 004 001
000 000 000 000 000 -99 000 000 000 000 000 000 000 -99 -99 -99 -99 000 000 -99 000 001 004 007 005 006 004 002 001 002 000
000 000 000 000 000 -99 000 000 000 000 000 000 000 -99 -99 -99 000 000 000 000 000 001 002 003 006 012 003 001 000 001 000
000 000 000 000 000 000 000 000 000 000 000 000 000 -99 -99 -99 000 000 000 000 000 000 001 001 002 010 002 001 000 000 000
000 000 000 000 000 000 000 000 -99 -99 -99 000 -99 -99 -99 -99 -99 000 000 000 000 000 000 001 002 005 000 000 000 000 000
000 000 000 000 000 000 000 000 -99 -99 -99 -99 -99 -99 -99 -99 -99 -99 -99 000 000 000 000 001 001 002 000 000 000 000 000
000 -99 000 000 000 000 000 000 000 -99 -99 -99 000 000 -99 -99 -99 -99 -99 -99 000 000 000 000 000 000 000 000 000 -99 -99
000 000 000 000 000 000 000 000 000 -99 -99 -99 -99 000 000 -99 000 -99 -99 -99 -99 000 000 000 000 000 000 000 -99 -99 -99
000 000 000 -99 -99 -99 000 000 000 -99 -99 -99 -99 000 000 -99 000 000 -99 -99 -99 000 000 000 000 000 000 000 -99 -99 -99
000 000 000 -99 -99 -99 000 000 000 -99 -99 -99 -99 000 000 -99 000 000 -99 -99 -99 000 000 000 000 000 000 -99 -99 -99 -99
000 000 000 000 -99 000 000 000 -99 -99 -99 -99 -99 000 000 -99 000 000 -99 -99 -99 000 000 000 000 000 000 -99 -99 -99 -99
000 000 000 000 000 000 000 000 000 -99 -99 -99 -99 -99 -99 -99 000 000 000 000 000 000 000 -99 -99 -99 -99 -99 -99 -99 -99
000 000 000 000 000 000 000 000 000 000 -99 -99 -99 -99 -99 000 000 000 000 000 000 000 000 -99 -99 -99 -99 -99 -99 -99 -99
000 000 000 000 000 000 000 000 000 000 -99 -99 -99 -99 000 000 000 000 000 000 000 000 000 -99 -99 -99 -99 -99 -99 -99 -99
000 000 000 000 000 000 000 000 000 000 -99 -99 -99 000 000 000 000 000 000 000 000 000 000 -99 -99 -99 -99 -99 -99 -99 000
000 000 000 000 000 000 000 000 000 000 -99 -99 -99 000 000 000 000 000 000 000 000 000 000 -99 -99 -99 -99 -99 -99 -99 000
000 000 000 000 000 000 000 000 000 000 -99 -99 -99 000 000 000 000 000 000 000 000 -99 -99 -99 -99 -99 -99 -99 -99 000 000
000 000 000 000 000 000 000 000 000 000 -99 -99 -99 -99 -99 000 000 000 000 -99 -99 000 -99 -99 -99 -99 -99 -99 -99 000 000
000 -99 000 000 000 000 000 000 000 000 -99 -99 -99 -99 000 000 000 000 000 -99 -99 000 -99 -99 -99 -99 -99 -99 -99 -99 000
000 000 000 000 000 000 000 000 000 -99 -99 -99 -99 -99 000 000 -99 000 000 000 000 000 -99 -99 -99 -99 -99 -99 -99 -99 -99
000 000 000 000 000 000 000 000 000 -99 -99 -99 -99 000 000 000 000 000 000 000 000 000 -99 -99 -99 -99 -99 -99 -99 -99 -99
-99 000 000 000 000 000 000 000 000 -99 -99 -99 -99 000 000 -99 000 000 000 000 -99 000 -99 000 000 -99 -99 -99 -99 -99 -99
000 000 000 000 000 000 000 000 000 -99 -99 -99 -99 000 000 000 000 000 000 -99 000 000 000 000 000 000 -99 -99 -99 -99 -99
000 000 000 000 000 000 000 000 000 -99 -99 -99 -99 000 000 -99 000 000 000 -99 -99 000 000 000 -99 000 -99 -99 000 000 -99
-99 000 000 000 000 000 000 000 -99 -99 -99 -99 -99 000 000 000 000 000 000 -99 -99 000 000 000 -99 000 000 000 000 000 000
-99 000 000 000 000 000 000 000 000 000 -99 -99 -99 000 000 000 000 000 -99 000 000 -99 000 000 000 000 000 000 000 000 000
000 000 000 000 000 -99 -99 000 000 000 -99 -99 -99 000 000 000 000 -99 000 000 000 000 000 000 000 000 000 000 000 000 -99
000 000 000 000 000 -99 -99 000 000 000 -99 -99 -99 000 000 000 000 000 000 000 000 000 -99 000 000 000 000 000 -99 000 -99
000 -99 000 000 000 -99 -99 -99 000 000 -99 -99 -99 000 000 000 000 000 000 -99 000 -99 000 000 000 000 -99 -99 -99 000 -99
000 -99 000 000 000 -99 -99 -99 -99 000 -99 -99 -99 000 000 000 000 000 -99 -99 -99 -99 000 000 000 000 -99 -99 -99 -99 -99
000 000 000 000 000 -99 -99 -99 -99 -99 -99 000 000 000 000 000 000 000 -99 -99 -99 -99 000 000 000 -99 -99 -99 -99 -99 -99
000 000 000 000 000 -99 -99 -99 -99 -99 -99 000 000 000 000 000 -99 -99 -99 -99 -99 -99 000 000 000 000 -99 -99 -99 -99 -99
000 000 -99 000 -99 -99 -99 -99 -99 -99 000 000 000 000 000 000 -99 -99 000 000 -99 -99 000 -99 000 -99 -99 -99 -99 -99 -99
000 000 -99 -99 -99 -99 -99 -99 -99 -99 -99 000 000 000 000 000 -99 -99 000 000 -99 -99 -99 -99 000 000 -99 -99 -99 -99 -99
000 -99 -99 -99 -99 -99 -99 -99 -99 -99 -99 000 000 000 000 000 -99 000 000 000 000 -99 -99 -99 000 000 -99 000 -99 -99 -99
000 -99 -99 -99 -99 -99 -99 -99 -99 -99 -99 000 000 000 000 000 -99 000 000 000 000 -99 -99 000 000 -99 000 000 -99 -99 -99
-99 -99 -99 -99 -99 -99 -99 -99 -99 -99 -99 000 000 000 000 -99 -99 000 000 000 -99 -99 -99 000 000 000 000 000 -99 -99 -99
-99 -99 -99 -99 -99 -99 -99 -99 -99 -99 -99 000 000 -99 000 -99 -99 000 000 000 -99 -99 -99 000 000 000 000 000 -99 -99 -99
-99 -99 -99 -99 -99 -99 -99 -99 -99 -99 -99 000 000 -99 -99 -99 -99 000 000 -99 -99 -99 -99 -99 -99 -99 000 000 -99 -99 -99
-99 -99 -99 -99 -99 -99 -99 -99 -99 -99 -99 -99 -99 -99 -99 -99 -99 000 000 -99 -99 000 000 -99 -99 000 000 000 -99 -99 -99
-99 -99 -99 -99 -99 -99 -99 -99 -99 -99 -99 -99 -99 -99 -99 -99 -99 000 000 -99 -99 000 -99 -99 -99 000 000 000 -99 -99 -99
-99 -99 -99 -99 -99 -99 -99 -99 -99 -99 -99 -99 -99 -99 -99 -99 000 000 -99 -99 -99 -99 -99 -99 -99 -99 000 -99 -99 -99 -99
-99 -99 -99 -99 -99 -99 -99 -99 -99 -99 -99 -99 -99 -99 -99 -99 000 001 000 -99 -99 -99 -99 -99 -99 -99 -99 -99 -99 -99 -99
-99 -99 -99 -99 -99 -99 -99 -99 -99 -99 -99 -99 -99 -99 -99 000 001 000 000 000 -99 -99 -99 -99 -99 -99 -99 -99 -99 -99 -99
-99 -99 -99 -99 -99 -99 -99 -99 -99 -99 -99 -99 -99 -99 -99 -99 000 000 000 -99 -99 -99 -99 -99 -99 -99 -99 -99 -99 -99 -99
-99 -99 -99 -99 -99 -99 -99 -99 -99 -99 -99 -99 -99 -99 -99 000 000 -99 -99 -99 -99 -99 -99 -99 -99 -99 -99 -99 -99 -99 -99
